&CONTROL
  calculation = 'relax'
  prefix = 'ni_to_vc_final_q0'
  outdir = './tmp'
  pseudo_dir = '../pseudo'
  verbosity = 'high'
  forc_conv_thr = 1.0d-4
/
&SYSTEM
  ibrav = 0
  nat = 216
  ntyp = 2
  ecutwfc = 60.0
  ecutrho = 480.0
  occupations = 'fixed'
  nspin = 2
  starting_magnetization(1) = 0.0
  starting_magnetization(2) = 0.5
  tot_charge = 0
/
&ELECTRONS
  conv_thr = 1.0d-8
  mixing_beta = 0.3
  electron_maxstep = 200
/
&IONS
  ion_dynamics = 'bfgs'
/
ATOMIC_SPECIES
  C  12.0107  C.pbe-n-kjpaw_psl.1.0.0.UPF
  N  14.0067  N.pbe-n-kjpaw_psl.1.0.0.UPF
K_POINTS gamma
CELL_PARAMETERS angstrom
   10.7010000000     0.0000000000     0.0000000000
    0.0000000000    10.7010000000     0.0000000000
    0.0000000000     0.0000000000    10.7010000000
ATOMIC_POSITIONS angstrom
  C     0.0000000000     0.0000000000     0.0000000000
  C     0.0000000000     1.7835000000     1.7835000000
  C     1.7835000000     0.0000000000     1.7835000000
  C     1.7835000000     1.7835000000     0.0000000000
  C     0.8917500000     0.8917500000     0.8917500000
  C     0.8917500000     2.6752500000     2.6752500000
  C     2.6752500000     0.8917500000     2.6752500000
  C     2.6752500000     2.6752500000     0.8917500000
  C     0.0000000000     0.0000000000     3.5670000000
  C     0.0000000000     1.7835000000     5.3505000000
  C     1.7835000000     0.0000000000     5.3505000000
  C     1.7835000000     1.7835000000     3.5670000000
  C     0.8917500000     0.8917500000     4.4587500000
  C     0.8917500000     2.6752500000     6.2422500000
  C     2.6752500000     0.8917500000     6.2422500000
  C     2.6752500000     2.6752500000     4.4587500000
  C     0.0000000000     0.0000000000     7.1340000000
  C     0.0000000000     1.7835000000     8.9175000000
  C     1.7835000000     0.0000000000     8.9175000000
  C     1.7835000000     1.7835000000     7.1340000000
  C     0.8917500000     0.8917500000     8.0257500000
  C     0.8917500000     2.6752500000     9.8092500000
  C     2.6752500000     0.8917500000     9.8092500000
  C     2.6752500000     2.6752500000     8.0257500000
  C     0.0000000000     3.5670000000     0.0000000000
  C     0.0000000000     5.3505000000     1.7835000000
  C     1.7835000000     3.5670000000     1.7835000000
  C     1.7835000000     5.3505000000     0.0000000000
  C     0.8917500000     4.4587500000     0.8917500000
  C     0.8917500000     6.2422500000     2.6752500000
  C     2.6752500000     4.4587500000     2.6752500000
  C     2.6752500000     6.2422500000     0.8917500000
  C     0.0000000000     3.5670000000     3.5670000000
  C     0.0000000000     5.3505000000     5.3505000000
  C     1.7835000000     3.5670000000     5.3505000000
  C     1.7835000000     5.3505000000     3.5670000000
  C     0.8917500000     4.4587500000     4.4587500000
  C     0.8917500000     6.2422500000     6.2422500000
  C     2.6752500000     4.4587500000     6.2422500000
  C     2.6752500000     6.2422500000     4.4587500000
  C     0.0000000000     3.5670000000     7.1340000000
  C     0.0000000000     5.3505000000     8.9175000000
  C     1.7835000000     3.5670000000     8.9175000000
  C     1.7835000000     5.3505000000     7.1340000000
  C     0.8917500000     4.4587500000     8.0257500000
  C     0.8917500000     6.2422500000     9.8092500000
  C     2.6752500000     4.4587500000     9.8092500000
  C     2.6752500000     6.2422500000     8.0257500000
  C     0.0000000000     7.1340000000     0.0000000000
  C     0.0000000000     8.9175000000     1.7835000000
  C     1.7835000000     7.1340000000     1.7835000000
  C     1.7835000000     8.9175000000     0.0000000000
  C     0.8917500000     8.0257500000     0.8917500000
  C     0.8917500000     9.8092500000     2.6752500000
  C     2.6752500000     8.0257500000     2.6752500000
  C     2.6752500000     9.8092500000     0.8917500000
  C     0.0000000000     7.1340000000     3.5670000000
  C     0.0000000000     8.9175000000     5.3505000000
  C     1.7835000000     7.1340000000     5.3505000000
  C     1.7835000000     8.9175000000     3.5670000000
  C     0.8917500000     8.0257500000     4.4587500000
  C     0.8917500000     9.8092500000     6.2422500000
  C     2.6752500000     8.0257500000     6.2422500000
  C     2.6752500000     9.8092500000     4.4587500000
  C     0.0000000000     7.1340000000     7.1340000000
  C     0.0000000000     8.9175000000     8.9175000000
  C     1.7835000000     7.1340000000     8.9175000000
  C     1.7835000000     8.9175000000     7.1340000000
  C     0.8917500000     8.0257500000     8.0257500000
  C     0.8917500000     9.8092500000     9.8092500000
  C     2.6752500000     8.0257500000     9.8092500000
  C     2.6752500000     9.8092500000     8.0257500000
  C     3.5670000000     0.0000000000     0.0000000000
  C     3.5670000000     1.7835000000     1.7835000000
  C     5.3505000000     0.0000000000     1.7835000000
  C     5.3505000000     1.7835000000     0.0000000000
  C     4.4587500000     0.8917500000     0.8917500000
  C     4.4587500000     2.6752500000     2.6752500000
  C     6.2422500000     0.8917500000     2.6752500000
  C     6.2422500000     2.6752500000     0.8917500000
  C     3.5670000000     0.0000000000     3.5670000000
  C     3.5670000000     1.7835000000     5.3505000000
  C     5.3505000000     0.0000000000     5.3505000000
  C     5.3505000000     1.7835000000     3.5670000000
  C     4.4587500000     0.8917500000     4.4587500000
  C     4.4587500000     2.6752500000     6.2422500000
  C     6.2422500000     0.8917500000     6.2422500000
  C     6.2422500000     2.6752500000     4.4587500000
  C     3.5670000000     0.0000000000     7.1340000000
  C     3.5670000000     1.7835000000     8.9175000000
  C     5.3505000000     0.0000000000     8.9175000000
  C     5.3505000000     1.7835000000     7.1340000000
  C     4.4587500000     0.8917500000     8.0257500000
  C     4.4587500000     2.6752500000     9.8092500000
  C     6.2422500000     0.8917500000     9.8092500000
  C     6.2422500000     2.6752500000     8.0257500000
  C     3.5670000000     3.5670000000     0.0000000000
  C     3.5670000000     5.3505000000     1.7835000000
  C     5.3505000000     3.5670000000     1.7835000000
  C     5.3505000000     5.3505000000     0.0000000000
  C     4.4587500000     4.4587500000     0.8917500000
  C     4.4587500000     6.2422500000     2.6752500000
  C     6.2422500000     4.4587500000     2.6752500000
  C     6.2422500000     6.2422500000     0.8917500000
  C     3.5670000000     5.3505000000     5.3505000000
  C     5.3505000000     3.5670000000     5.3505000000
  C     5.3505000000     5.3505000000     3.5670000000
  C     4.4587500000     4.4587500000     4.4587500000
  C     4.4587500000     6.2422500000     6.2422500000
  C     6.2422500000     4.4587500000     6.2422500000
  C     6.2422500000     6.2422500000     4.4587500000
  C     3.5670000000     3.5670000000     7.1340000000
  C     3.5670000000     5.3505000000     8.9175000000
  C     5.3505000000     3.5670000000     8.9175000000
  C     5.3505000000     5.3505000000     7.1340000000
  C     4.4587500000     4.4587500000     8.0257500000
  C     4.4587500000     6.2422500000     9.8092500000
  C     6.2422500000     4.4587500000     9.8092500000
  C     6.2422500000     6.2422500000     8.0257500000
  C     3.5670000000     7.1340000000     0.0000000000
  C     3.5670000000     8.9175000000     1.7835000000
  C     5.3505000000     7.1340000000     1.7835000000
  C     5.3505000000     8.9175000000     0.0000000000
  C     4.4587500000     8.0257500000     0.8917500000
  C     4.4587500000     9.8092500000     2.6752500000
  C     6.2422500000     8.0257500000     2.6752500000
  C     6.2422500000     9.8092500000     0.8917500000
  C     3.5670000000     7.1340000000     3.5670000000
  C     3.5670000000     8.9175000000     5.3505000000
  C     5.3505000000     7.1340000000     5.3505000000
  C     5.3505000000     8.9175000000     3.5670000000
  C     4.4587500000     8.0257500000     4.4587500000
  C     4.4587500000     9.8092500000     6.2422500000
  C     6.2422500000     8.0257500000     6.2422500000
  C     6.2422500000     9.8092500000     4.4587500000
  C     3.5670000000     7.1340000000     7.1340000000
  C     3.5670000000     8.9175000000     8.9175000000
  C     5.3505000000     7.1340000000     8.9175000000
  C     5.3505000000     8.9175000000     7.1340000000
  C     4.4587500000     8.0257500000     8.0257500000
  C     4.4587500000     9.8092500000     9.8092500000
  C     6.2422500000     8.0257500000     9.8092500000
  C     6.2422500000     9.8092500000     8.0257500000
  C     7.1340000000     0.0000000000     0.0000000000
  C     7.1340000000     1.7835000000     1.7835000000
  C     8.9175000000     0.0000000000     1.7835000000
  C     8.9175000000     1.7835000000     0.0000000000
  C     8.0257500000     0.8917500000     0.8917500000
  C     8.0257500000     2.6752500000     2.6752500000
  C     9.8092500000     0.8917500000     2.6752500000
  C     9.8092500000     2.6752500000     0.8917500000
  C     7.1340000000     0.0000000000     3.5670000000
  C     7.1340000000     1.7835000000     5.3505000000
  C     8.9175000000     0.0000000000     5.3505000000
  C     8.9175000000     1.7835000000     3.5670000000
  C     8.0257500000     0.8917500000     4.4587500000
  C     8.0257500000     2.6752500000     6.2422500000
  C     9.8092500000     0.8917500000     6.2422500000
  C     9.8092500000     2.6752500000     4.4587500000
  C     7.1340000000     0.0000000000     7.1340000000
  C     7.1340000000     1.7835000000     8.9175000000
  C     8.9175000000     0.0000000000     8.9175000000
  C     8.9175000000     1.7835000000     7.1340000000
  C     8.0257500000     0.8917500000     8.0257500000
  C     8.0257500000     2.6752500000     9.8092500000
  C     9.8092500000     0.8917500000     9.8092500000
  C     9.8092500000     2.6752500000     8.0257500000
  C     7.1340000000     3.5670000000     0.0000000000
  C     7.1340000000     5.3505000000     1.7835000000
  C     8.9175000000     3.5670000000     1.7835000000
  C     8.9175000000     5.3505000000     0.0000000000
  C     8.0257500000     4.4587500000     0.8917500000
  C     8.0257500000     6.2422500000     2.6752500000
  C     9.8092500000     4.4587500000     2.6752500000
  C     9.8092500000     6.2422500000     0.8917500000
  C     7.1340000000     3.5670000000     3.5670000000
  C     7.1340000000     5.3505000000     5.3505000000
  C     8.9175000000     3.5670000000     5.3505000000
  C     8.9175000000     5.3505000000     3.5670000000
  C     8.0257500000     4.4587500000     4.4587500000
  C     8.0257500000     6.2422500000     6.2422500000
  C     9.8092500000     4.4587500000     6.2422500000
  C     9.8092500000     6.2422500000     4.4587500000
  C     7.1340000000     3.5670000000     7.1340000000
  C     7.1340000000     5.3505000000     8.9175000000
  C     8.9175000000     3.5670000000     8.9175000000
  C     8.9175000000     5.3505000000     7.1340000000
  C     8.0257500000     4.4587500000     8.0257500000
  C     8.0257500000     6.2422500000     9.8092500000
  C     9.8092500000     4.4587500000     9.8092500000
  C     9.8092500000     6.2422500000     8.0257500000
  C     7.1340000000     7.1340000000     0.0000000000
  C     7.1340000000     8.9175000000     1.7835000000
  C     8.9175000000     7.1340000000     1.7835000000
  C     8.9175000000     8.9175000000     0.0000000000
  C     8.0257500000     8.0257500000     0.8917500000
  C     8.0257500000     9.8092500000     2.6752500000
  C     9.8092500000     8.0257500000     2.6752500000
  C     9.8092500000     9.8092500000     0.8917500000
  C     7.1340000000     7.1340000000     3.5670000000
  C     7.1340000000     8.9175000000     5.3505000000
  C     8.9175000000     7.1340000000     5.3505000000
  C     8.9175000000     8.9175000000     3.5670000000
  C     8.0257500000     8.0257500000     4.4587500000
  C     8.0257500000     9.8092500000     6.2422500000
  C     9.8092500000     8.0257500000     6.2422500000
  C     9.8092500000     9.8092500000     4.4587500000
  C     7.1340000000     7.1340000000     7.1340000000
  C     7.1340000000     8.9175000000     8.9175000000
  C     8.9175000000     7.1340000000     8.9175000000
  C     8.9175000000     8.9175000000     7.1340000000
  C     8.0257500000     8.0257500000     8.0257500000
  C     8.0257500000     9.8092500000     9.8092500000
  C     9.8092500000     8.0257500000     9.8092500000
  C     9.8092500000     9.8092500000     8.0257500000
  N     3.5670000000     3.5670000000     3.5670000000
